47 1 68 17 19 53 170 87 66 137 168 14 7 6 124 12 197 92 22 41 175 105 179 169 89 106 42 63 199 167 69 147 91 112 108 153 190 182 99 67 79 83 151 132 60 32 98 78 155 193 73 61 26 45 146 116 34 36 4 117 163 121 101 187 164 84 114 123 3 28 178 0 157 44 46 81 102 97 59 118 50 43 115 38 139 125 174 75 186 27 176 119 5 95 156 189 120 33 191 20 18 16 74 172 126 149 142 71 10 143 57 184 122 138 185 194 154 162 77 160 15 82 58 65 37 40 173 159 165 29 56 104 96 166 49 110 144 39 150 11 171 94 86 54 51 80 25 55 195 135 177 52 100 23 127 131 129 93 130 103 188 13 30 111 198 128 107 158 35 133 21 140 136 109 48 196 31 88 152 64 85 70 72 183 148 145 161 192 180 9 76 62 134 141 8 181 113 24 90 2